path="C:/Users/15217/Desktop/3TAYLOR_LR5E-4/saved_files/cplex_logs/matching/scenario_nyc4/res_0.dat";accInitTuple = {<1, 73>, <2, 4>, <3, 54>, <6, 61>, <4, 73>, <12, 1>, <5, 26>, <11, 59>, <9, 62>, <8, 35>, <7, 83>, <18, 20>, <16, 4>, <10, 66>, <15, 62>, <17, 41>, <14, 9>, <13, 31>, <24, 46>, <23, 5>, <19, 53>, <22, 17>, <20, 77>, <21, 45>};
ioPathTuple = {<3, 4, 11, 0, 18.0, 2, 8>, <3, 4, 11, 1, 10.0, 2, 8>, <3, 4, 11, 2, 30.0, 2, 8>, <3, 4, 11, 3, 22.0, 2, 8>, <5, 4, 11, 4, 16.0, 2, 8>, <5, 4, 11, 5, 8.0, 2, 8>, <11, 4, 11, 6, 20.0, 2, 8>, <11, 4, 11, 7, 12.0, 2, 8>, <11, 4, 11, 8, 28.0, 2, 8>, <11, 4, 11, 9, 20.0, 2, 8>, <4, 5, 9, 10, 18.0, 1, 14>, <4, 5, 9, 11, 7.0, 1, 14>, <6, 5, 9, 12, 20.0, 1, 14>, <6, 5, 9, 13, 9.0, 1, 14>, <6, 5, 9, 14, 33.0, 1, 14>, <6, 5, 9, 15, 22.0, 1, 14>, <9, 5, 9, 16, 21.0, 1, 14>, <9, 5, 9, 17, 10.0, 1, 14>, <9, 5, 9, 18, 32.0, 1, 14>, <9, 5, 9, 19, 21.0, 1, 14>, <4, 5, 10, 20, 15.0, 1, 8>, <4, 5, 10, 21, 10.0, 1, 8>, <6, 5, 10, 22, 17.0, 1, 8>, <6, 5, 10, 23, 12.0, 1, 8>, <6, 5, 10, 24, 30.0, 1, 8>, <6, 5, 10, 25, 25.0, 1, 8>, <9, 5, 10, 26, 18.0, 1, 8>, <9, 5, 10, 27, 13.0, 1, 8>, <9, 5, 10, 28, 29.0, 1, 8>, <9, 5, 10, 29, 24.0, 1, 8>, <2, 6, 16, 30, 12.0, 1, 9>, <5, 6, 16, 31, 11.0, 1, 9>, <5, 6, 16, 32, 24.0, 1, 9>, <8, 6, 16, 33, 9.0, 1, 9>, <8, 6, 16, 34, 26.0, 1, 9>, <8, 7, 8, 35, 6.0, 1, 11>, <8, 7, 8, 36, 13.0, 1, 11>, <8, 7, 8, 37, 13.0, 1, 11>, <8, 7, 8, 38, 20.0, 1, 11>, <18, 7, 8, 39, 5.0, 1, 11>, <18, 7, 8, 40, 12.0, 1, 11>, <18, 7, 8, 41, 14.0, 1, 11>, <18, 7, 8, 42, 21.0, 1, 11>, <8, 7, 10, 43, 19.0, 3, 7>, <8, 7, 10, 44, 15.0, 3, 7>, <8, 7, 10, 45, 12.0, 3, 7>, <8, 7, 10, 46, 26.0, 3, 7>, <8, 7, 10, 47, 22.0, 3, 7>, <8, 7, 10, 48, 19.0, 3, 7>, <18, 7, 10, 49, 18.0, 3, 7>, <18, 7, 10, 50, 14.0, 3, 7>, <18, 7, 10, 51, 11.0, 3, 7>, <18, 7, 10, 52, 27.0, 3, 7>, <18, 7, 10, 53, 23.0, 3, 7>, <18, 7, 10, 54, 20.0, 3, 7>, <6, 8, 6, 55, 21.0, 1, 10>, <6, 8, 6, 56, 38.0, 1, 10>, <6, 8, 6, 57, 4.0, 1, 10>, <6, 8, 6, 58, 21.0, 1, 10>, <7, 8, 6, 59, 5.0, 1, 10>, <7, 8, 6, 60, 22.0, 1, 10>, <7, 8, 6, 61, 12.0, 1, 10>, <7, 8, 6, 62, 29.0, 1, 10>, <9, 8, 6, 63, 13.0, 1, 10>, <9, 8, 6, 64, 30.0, 1, 10>, <9, 8, 6, 65, 12.0, 1, 10>, <9, 8, 6, 66, 29.0, 1, 10>, <9, 8, 6, 67, 14.0, 1, 10>, <9, 8, 6, 68, 31.0, 1, 10>, <16, 8, 6, 69, 7.0, 1, 10>, <16, 8, 6, 70, 24.0, 1, 10>, <16, 8, 6, 71, 19.0, 1, 10>, <16, 8, 6, 72, 36.0, 1, 10>, <16, 8, 6, 73, 10.0, 1, 10>, <16, 8, 6, 74, 27.0, 1, 10>, <6, 8, 11, 75, 37.0, 1, 10>, <6, 8, 11, 76, 33.0, 1, 10>, <6, 8, 11, 77, 20.0, 1, 10>, <6, 8, 11, 78, 16.0, 1, 10>, <7, 8, 11, 79, 21.0, 1, 10>, <7, 8, 11, 80, 17.0, 1, 10>, <7, 8, 11, 81, 28.0, 1, 10>, <7, 8, 11, 82, 24.0, 1, 10>, <9, 8, 11, 83, 29.0, 1, 10>, <9, 8, 11, 84, 25.0, 1, 10>, <9, 8, 11, 85, 28.0, 1, 10>, <9, 8, 11, 86, 24.0, 1, 10>, <9, 8, 11, 87, 30.0, 1, 10>, <9, 8, 11, 88, 26.0, 1, 10>, <16, 8, 11, 89, 23.0, 1, 10>, <16, 8, 11, 90, 19.0, 1, 10>, <16, 8, 11, 91, 35.0, 1, 10>, <16, 8, 11, 92, 31.0, 1, 10>, <16, 8, 11, 93, 26.0, 1, 10>, <16, 8, 11, 94, 22.0, 1, 10>, <5, 9, 5, 95, 21.0, 1, 7>, <5, 9, 5, 96, 32.0, 1, 7>, <5, 9, 5, 97, 10.0, 1, 7>, <5, 9, 5, 98, 21.0, 1, 7>, <8, 9, 5, 99, 16.0, 1, 7>, <8, 9, 5, 100, 27.0, 1, 7>, <8, 9, 5, 101, 15.0, 1, 7>, <8, 9, 5, 102, 26.0, 1, 7>, <8, 9, 5, 103, 17.0, 1, 7>, <8, 9, 5, 104, 28.0, 1, 7>, <10, 9, 5, 105, 8.0, 1, 7>, <10, 9, 5, 106, 19.0, 1, 7>, <10, 9, 5, 107, 24.0, 1, 7>, <10, 9, 5, 108, 35.0, 1, 7>, <5, 9, 10, 109, 35.0, 4, 11>, <5, 9, 10, 110, 19.0, 4, 11>, <5, 9, 10, 111, 24.0, 4, 11>, <5, 9, 10, 112, 8.0, 4, 11>, <8, 9, 10, 113, 30.0, 4, 11>, <8, 9, 10, 114, 14.0, 4, 11>, <8, 9, 10, 115, 29.0, 4, 11>, <8, 9, 10, 116, 13.0, 4, 11>, <8, 9, 10, 117, 31.0, 4, 11>, <8, 9, 10, 118, 15.0, 4, 11>, <10, 9, 10, 119, 22.0, 4, 11>, <10, 9, 10, 120, 6.0, 4, 11>, <10, 9, 10, 121, 38.0, 4, 11>, <10, 9, 10, 122, 22.0, 4, 11>, <5, 9, 15, 123, 25.0, 1, 14>, <5, 9, 15, 124, 14.0, 1, 14>, <8, 9, 15, 125, 20.0, 1, 14>, <8, 9, 15, 126, 19.0, 1, 14>, <8, 9, 15, 127, 21.0, 1, 14>, <10, 9, 15, 128, 12.0, 1, 14>, <10, 9, 15, 129, 28.0, 1, 14>, <5, 9, 16, 130, 31.0, 2, 7>, <5, 9, 16, 131, 23.0, 2, 7>, <5, 9, 16, 132, 29.0, 2, 7>, <5, 9, 16, 133, 20.0, 2, 7>, <5, 9, 16, 134, 12.0, 2, 7>, <5, 9, 16, 135, 18.0, 2, 7>, <8, 9, 16, 136, 26.0, 2, 7>, <8, 9, 16, 137, 18.0, 2, 7>, <8, 9, 16, 138, 24.0, 2, 7>, <8, 9, 16, 139, 25.0, 2, 7>, <8, 9, 16, 140, 17.0, 2, 7>, <8, 9, 16, 141, 23.0, 2, 7>, <8, 9, 16, 142, 27.0, 2, 7>, <8, 9, 16, 143, 19.0, 2, 7>, <8, 9, 16, 144, 25.0, 2, 7>, <10, 9, 16, 145, 18.0, 2, 7>, <10, 9, 16, 146, 10.0, 2, 7>, <10, 9, 16, 147, 16.0, 2, 7>, <10, 9, 16, 148, 34.0, 2, 7>, <10, 9, 16, 149, 26.0, 2, 7>, <10, 9, 16, 150, 32.0, 2, 7>, <5, 9, 17, 151, 33.0, 1, 5>, <5, 9, 17, 152, 25.0, 1, 5>, <5, 9, 17, 153, 27.0, 1, 5>, <5, 9, 17, 154, 22.0, 1, 5>, <5, 9, 17, 155, 14.0, 1, 5>, <5, 9, 17, 156, 16.0, 1, 5>, <8, 9, 17, 157, 28.0, 1, 5>, <8, 9, 17, 158, 20.0, 1, 5>, <8, 9, 17, 159, 22.0, 1, 5>, <8, 9, 17, 160, 27.0, 1, 5>, <8, 9, 17, 161, 19.0, 1, 5>, <8, 9, 17, 162, 21.0, 1, 5>, <8, 9, 17, 163, 29.0, 1, 5>, <8, 9, 17, 164, 21.0, 1, 5>, <8, 9, 17, 165, 23.0, 1, 5>, <10, 9, 17, 166, 20.0, 1, 5>, <10, 9, 17, 167, 12.0, 1, 5>, <10, 9, 17, 168, 14.0, 1, 5>, <10, 9, 17, 169, 36.0, 1, 5>, <10, 9, 17, 170, 28.0, 1, 5>, <10, 9, 17, 171, 30.0, 1, 5>, <9, 10, 6, 172, 31.0, 1, 6>, <9, 10, 6, 173, 34.0, 1, 6>, <9, 10, 6, 174, 30.0, 1, 6>, <9, 10, 6, 175, 15.0, 1, 6>, <9, 10, 6, 176, 18.0, 1, 6>, <9, 10, 6, 177, 14.0, 1, 6>, <11, 10, 6, 178, 17.0, 1, 6>, <11, 10, 6, 179, 20.0, 1, 6>, <11, 10, 6, 180, 16.0, 1, 6>, <11, 10, 6, 181, 27.0, 1, 6>, <11, 10, 6, 182, 30.0, 1, 6>, <11, 10, 6, 183, 26.0, 1, 6>, <15, 10, 6, 184, 18.0, 1, 6>, <15, 10, 6, 185, 21.0, 1, 6>, <15, 10, 6, 186, 17.0, 1, 6>, <15, 10, 6, 187, 26.0, 1, 6>, <15, 10, 6, 188, 29.0, 1, 6>, <15, 10, 6, 189, 25.0, 1, 6>, <15, 10, 6, 190, 25.0, 1, 6>, <15, 10, 6, 191, 28.0, 1, 6>, <15, 10, 6, 192, 24.0, 1, 6>, <16, 10, 6, 193, 30.0, 1, 6>, <16, 10, 6, 194, 33.0, 1, 6>, <16, 10, 6, 195, 29.0, 1, 6>, <16, 10, 6, 196, 16.0, 1, 6>, <16, 10, 6, 197, 19.0, 1, 6>, <16, 10, 6, 198, 15.0, 1, 6>, <16, 10, 6, 199, 22.0, 1, 6>, <16, 10, 6, 200, 25.0, 1, 6>, <16, 10, 6, 201, 21.0, 1, 6>, <17, 10, 6, 202, 20.0, 1, 6>, <17, 10, 6, 203, 23.0, 1, 6>, <17, 10, 6, 204, 19.0, 1, 6>, <17, 10, 6, 205, 18.0, 1, 6>, <17, 10, 6, 206, 21.0, 1, 6>, <17, 10, 6, 207, 17.0, 1, 6>, <17, 10, 6, 208, 23.0, 1, 6>, <17, 10, 6, 209, 26.0, 1, 6>, <17, 10, 6, 210, 22.0, 1, 6>, <9, 10, 18, 211, 26.0, 1, 8>, <9, 10, 18, 212, 32.0, 1, 8>, <9, 10, 18, 213, 10.0, 1, 8>, <9, 10, 18, 214, 16.0, 1, 8>, <11, 10, 18, 215, 12.0, 1, 8>, <11, 10, 18, 216, 18.0, 1, 8>, <11, 10, 18, 217, 22.0, 1, 8>, <11, 10, 18, 218, 28.0, 1, 8>, <15, 10, 18, 219, 13.0, 1, 8>, <15, 10, 18, 220, 19.0, 1, 8>, <15, 10, 18, 221, 21.0, 1, 8>, <15, 10, 18, 222, 27.0, 1, 8>, <15, 10, 18, 223, 20.0, 1, 8>, <15, 10, 18, 224, 26.0, 1, 8>, <16, 10, 18, 225, 25.0, 1, 8>, <16, 10, 18, 226, 31.0, 1, 8>, <16, 10, 18, 227, 11.0, 1, 8>, <16, 10, 18, 228, 17.0, 1, 8>, <16, 10, 18, 229, 17.0, 1, 8>, <16, 10, 18, 230, 23.0, 1, 8>, <17, 10, 18, 231, 15.0, 1, 8>, <17, 10, 18, 232, 21.0, 1, 8>, <17, 10, 18, 233, 13.0, 1, 8>, <17, 10, 18, 234, 19.0, 1, 8>, <17, 10, 18, 235, 18.0, 1, 8>, <17, 10, 18, 236, 24.0, 1, 8>, <4, 11, 4, 237, 20.0, 2, 11>, <4, 11, 4, 238, 28.0, 2, 11>, <4, 11, 4, 239, 12.0, 2, 11>, <4, 11, 4, 240, 20.0, 2, 11>, <10, 11, 4, 241, 11.0, 2, 11>, <10, 11, 4, 242, 19.0, 2, 11>, <10, 11, 4, 243, 21.0, 2, 11>, <10, 11, 4, 244, 29.0, 2, 11>, <12, 11, 4, 245, 20.0, 2, 11>, <12, 11, 4, 246, 28.0, 2, 11>, <12, 11, 4, 247, 12.0, 2, 11>, <12, 11, 4, 248, 20.0, 2, 11>, <14, 11, 4, 249, 10.0, 2, 11>, <14, 11, 4, 250, 18.0, 2, 11>, <14, 11, 4, 251, 22.0, 2, 11>, <14, 11, 4, 252, 30.0, 2, 11>, <4, 11, 12, 253, 28.0, 2, 8>, <4, 11, 12, 254, 20.0, 2, 8>, <4, 11, 12, 255, 20.0, 2, 8>, <4, 11, 12, 256, 12.0, 2, 8>, <10, 11, 12, 257, 19.0, 2, 8>, <10, 11, 12, 258, 11.0, 2, 8>, <10, 11, 12, 259, 29.0, 2, 8>, <10, 11, 12, 260, 21.0, 2, 8>, <12, 11, 12, 261, 28.0, 2, 8>, <12, 11, 12, 262, 20.0, 2, 8>, <12, 11, 12, 263, 20.0, 2, 8>, <12, 11, 12, 264, 12.0, 2, 8>, <14, 11, 12, 265, 18.0, 2, 8>, <14, 11, 12, 266, 10.0, 2, 8>, <14, 11, 12, 267, 30.0, 2, 8>, <14, 11, 12, 268, 22.0, 2, 8>, <4, 11, 13, 269, 23.0, 1, 13>, <4, 11, 13, 270, 15.0, 1, 13>, <10, 11, 13, 271, 14.0, 1, 13>, <10, 11, 13, 272, 24.0, 1, 13>, <12, 11, 13, 273, 23.0, 1, 13>, <12, 11, 13, 274, 15.0, 1, 13>, <14, 11, 13, 275, 13.0, 1, 13>, <14, 11, 13, 276, 25.0, 1, 13>, <4, 11, 17, 277, 25.0, 1, 5>, <4, 11, 17, 278, 27.0, 1, 5>, <4, 11, 17, 279, 17.0, 1, 5>, <4, 11, 17, 280, 19.0, 1, 5>, <10, 11, 17, 281, 16.0, 1, 5>, <10, 11, 17, 282, 18.0, 1, 5>, <10, 11, 17, 283, 26.0, 1, 5>, <10, 11, 17, 284, 28.0, 1, 5>, <12, 11, 17, 285, 25.0, 1, 5>, <12, 11, 17, 286, 27.0, 1, 5>, <12, 11, 17, 287, 17.0, 1, 5>, <12, 11, 17, 288, 19.0, 1, 5>, <14, 11, 17, 289, 15.0, 1, 5>, <14, 11, 17, 290, 17.0, 1, 5>, <14, 11, 17, 291, 27.0, 1, 5>, <14, 11, 17, 292, 29.0, 1, 5>, <4, 11, 22, 293, 28.0, 1, 15>, <4, 11, 22, 294, 26.0, 1, 15>, <4, 11, 22, 295, 26.0, 1, 15>, <4, 11, 22, 296, 20.0, 1, 15>, <4, 11, 22, 297, 18.0, 1, 15>, <4, 11, 22, 298, 18.0, 1, 15>, <10, 11, 22, 299, 19.0, 1, 15>, <10, 11, 22, 300, 17.0, 1, 15>, <10, 11, 22, 301, 17.0, 1, 15>, <10, 11, 22, 302, 29.0, 1, 15>, <10, 11, 22, 303, 27.0, 1, 15>, <10, 11, 22, 304, 27.0, 1, 15>, <12, 11, 22, 305, 28.0, 1, 15>, <12, 11, 22, 306, 26.0, 1, 15>, <12, 11, 22, 307, 26.0, 1, 15>, <12, 11, 22, 308, 20.0, 1, 15>, <12, 11, 22, 309, 18.0, 1, 15>, <12, 11, 22, 310, 18.0, 1, 15>, <14, 11, 22, 311, 18.0, 1, 15>, <14, 11, 22, 312, 16.0, 1, 15>, <14, 11, 22, 313, 16.0, 1, 15>, <14, 11, 22, 314, 30.0, 1, 15>, <14, 11, 22, 315, 28.0, 1, 15>, <14, 11, 22, 316, 28.0, 1, 15>, <3, 12, 11, 317, 30.0, 2, 6>, <3, 12, 11, 318, 22.0, 2, 6>, <3, 12, 11, 319, 18.0, 2, 6>, <3, 12, 11, 320, 10.0, 2, 6>, <11, 12, 11, 321, 28.0, 2, 6>, <11, 12, 11, 322, 20.0, 2, 6>, <11, 12, 11, 323, 20.0, 2, 6>, <11, 12, 11, 324, 12.0, 2, 6>, <13, 12, 11, 325, 17.0, 2, 6>, <13, 12, 11, 326, 9.0, 2, 6>, <3, 12, 13, 327, 19.0, 2, 12>, <3, 12, 13, 328, 7.0, 2, 12>, <11, 12, 13, 329, 17.0, 2, 12>, <11, 12, 13, 330, 9.0, 2, 12>, <13, 12, 13, 331, 6.0, 2, 12>, <3, 12, 14, 332, 26.0, 1, 9>, <3, 12, 14, 333, 14.0, 1, 9>, <11, 12, 14, 334, 24.0, 1, 9>, <11, 12, 14, 335, 16.0, 1, 9>, <13, 12, 14, 336, 13.0, 1, 9>, <3, 12, 15, 337, 33.0, 1, 13>, <3, 12, 15, 338, 31.0, 1, 13>, <3, 12, 15, 339, 21.0, 1, 13>, <3, 12, 15, 340, 19.0, 1, 13>, <11, 12, 15, 341, 31.0, 1, 13>, <11, 12, 15, 342, 29.0, 1, 13>, <11, 12, 15, 343, 23.0, 1, 13>, <11, 12, 15, 344, 21.0, 1, 13>, <13, 12, 15, 345, 20.0, 1, 13>, <13, 12, 15, 346, 18.0, 1, 13>, <3, 12, 16, 347, 31.0, 1, 6>, <3, 12, 16, 348, 19.0, 1, 6>, <11, 12, 16, 349, 29.0, 1, 6>, <11, 12, 16, 350, 21.0, 1, 6>, <13, 12, 16, 351, 18.0, 1, 6>, <12, 13, 11, 352, 12.0, 1, 15>, <24, 13, 11, 353, 13.0, 1, 15>, <12, 13, 23, 354, 9.0, 1, 15>, <24, 13, 23, 355, 10.0, 1, 15>, <11, 14, 12, 356, 26.0, 1, 5>, <11, 14, 12, 357, 14.0, 1, 5>, <15, 14, 12, 358, 25.0, 1, 5>, <15, 14, 12, 359, 15.0, 1, 5>, <15, 14, 12, 360, 21.0, 1, 5>, <23, 14, 12, 361, 14.0, 1, 5>, <23, 14, 12, 362, 22.0, 1, 5>, <11, 14, 17, 363, 33.0, 1, 6>, <11, 14, 17, 364, 35.0, 1, 6>, <11, 14, 17, 365, 26.0, 1, 6>, <11, 14, 17, 366, 21.0, 1, 6>, <11, 14, 17, 367, 23.0, 1, 6>, <11, 14, 17, 368, 14.0, 1, 6>, <15, 14, 17, 369, 32.0, 1, 6>, <15, 14, 17, 370, 34.0, 1, 6>, <15, 14, 17, 371, 25.0, 1, 6>, <15, 14, 17, 372, 22.0, 1, 6>, <15, 14, 17, 373, 24.0, 1, 6>, <15, 14, 17, 374, 15.0, 1, 6>, <15, 14, 17, 375, 28.0, 1, 6>, <15, 14, 17, 376, 30.0, 1, 6>, <15, 14, 17, 377, 21.0, 1, 6>, <23, 14, 17, 378, 21.0, 1, 6>, <23, 14, 17, 379, 23.0, 1, 6>, <23, 14, 17, 380, 14.0, 1, 6>, <23, 14, 17, 381, 29.0, 1, 6>, <23, 14, 17, 382, 31.0, 1, 6>, <23, 14, 17, 383, 22.0, 1, 6>, <10, 15, 9, 384, 23.0, 1, 13>, <10, 15, 9, 385, 15.0, 1, 13>, <10, 15, 9, 386, 22.0, 1, 13>, <14, 15, 9, 387, 24.0, 1, 13>, <14, 15, 9, 388, 14.0, 1, 13>, <14, 15, 9, 389, 20.0, 1, 13>, <19, 15, 9, 390, 12.0, 1, 13>, <19, 15, 9, 391, 25.0, 1, 13>, <19, 15, 9, 392, 21.0, 1, 13>, <22, 15, 9, 393, 12.0, 1, 13>, <22, 15, 9, 394, 21.0, 1, 13>, <22, 15, 9, 395, 22.0, 1, 13>, <10, 15, 17, 396, 26.0, 2, 8>, <10, 15, 17, 397, 28.0, 2, 8>, <10, 15, 17, 398, 19.0, 2, 8>, <10, 15, 17, 399, 18.0, 2, 8>, <10, 15, 17, 400, 20.0, 2, 8>, <10, 15, 17, 401, 11.0, 2, 8>, <10, 15, 17, 402, 25.0, 2, 8>, <10, 15, 17, 403, 27.0, 2, 8>, <10, 15, 17, 404, 18.0, 2, 8>, <14, 15, 17, 405, 27.0, 2, 8>, <14, 15, 17, 406, 29.0, 2, 8>, <14, 15, 17, 407, 20.0, 2, 8>, <14, 15, 17, 408, 17.0, 2, 8>, <14, 15, 17, 409, 19.0, 2, 8>, <14, 15, 17, 410, 10.0, 2, 8>, <14, 15, 17, 411, 23.0, 2, 8>, <14, 15, 17, 412, 25.0, 2, 8>, <14, 15, 17, 413, 16.0, 2, 8>, <19, 15, 17, 414, 15.0, 2, 8>, <19, 15, 17, 415, 17.0, 2, 8>, <19, 15, 17, 416, 8.0, 2, 8>, <19, 15, 17, 417, 28.0, 2, 8>, <19, 15, 17, 418, 30.0, 2, 8>, <19, 15, 17, 419, 21.0, 2, 8>, <19, 15, 17, 420, 24.0, 2, 8>, <19, 15, 17, 421, 26.0, 2, 8>, <19, 15, 17, 422, 17.0, 2, 8>, <22, 15, 17, 423, 15.0, 2, 8>, <22, 15, 17, 424, 17.0, 2, 8>, <22, 15, 17, 425, 8.0, 2, 8>, <22, 15, 17, 426, 24.0, 2, 8>, <22, 15, 17, 427, 26.0, 2, 8>, <22, 15, 17, 428, 17.0, 2, 8>, <22, 15, 17, 429, 25.0, 2, 8>, <22, 15, 17, 430, 27.0, 2, 8>, <22, 15, 17, 431, 18.0, 2, 8>, <10, 15, 23, 432, 23.0, 1, 15>, <10, 15, 23, 433, 21.0, 1, 15>, <10, 15, 23, 434, 15.0, 1, 15>, <10, 15, 23, 435, 13.0, 1, 15>, <10, 15, 23, 436, 22.0, 1, 15>, <10, 15, 23, 437, 20.0, 1, 15>, <14, 15, 23, 438, 24.0, 1, 15>, <14, 15, 23, 439, 22.0, 1, 15>, <14, 15, 23, 440, 14.0, 1, 15>, <14, 15, 23, 441, 12.0, 1, 15>, <14, 15, 23, 442, 20.0, 1, 15>, <14, 15, 23, 443, 18.0, 1, 15>, <19, 15, 23, 444, 12.0, 1, 15>, <19, 15, 23, 445, 10.0, 1, 15>, <19, 15, 23, 446, 25.0, 1, 15>, <19, 15, 23, 447, 23.0, 1, 15>, <19, 15, 23, 448, 21.0, 1, 15>, <19, 15, 23, 449, 19.0, 1, 15>, <22, 15, 23, 450, 12.0, 1, 15>, <22, 15, 23, 451, 10.0, 1, 15>, <22, 15, 23, 452, 21.0, 1, 15>, <22, 15, 23, 453, 19.0, 1, 15>, <22, 15, 23, 454, 22.0, 1, 15>, <22, 15, 23, 455, 20.0, 1, 15>, <8, 16, 6, 456, 15.0, 1, 10>, <8, 16, 6, 457, 24.0, 1, 10>, <8, 16, 6, 458, 12.0, 1, 10>, <10, 16, 6, 459, 25.0, 1, 10>, <10, 16, 6, 460, 11.0, 1, 10>, <10, 16, 6, 461, 17.0, 1, 10>, <17, 16, 6, 462, 19.0, 1, 10>, <17, 16, 6, 463, 9.0, 1, 10>, <18, 16, 6, 464, 17.0, 1, 10>, <18, 16, 6, 465, 10.0, 1, 10>, <8, 16, 7, 466, 16.0, 2, 9>, <8, 16, 7, 467, 13.0, 2, 9>, <8, 16, 7, 468, 25.0, 2, 9>, <8, 16, 7, 469, 22.0, 2, 9>, <8, 16, 7, 470, 13.0, 2, 9>, <8, 16, 7, 471, 10.0, 2, 9>, <10, 16, 7, 472, 26.0, 2, 9>, <10, 16, 7, 473, 23.0, 2, 9>, <10, 16, 7, 474, 12.0, 2, 9>, <10, 16, 7, 475, 9.0, 2, 9>, <10, 16, 7, 476, 18.0, 2, 9>, <10, 16, 7, 477, 15.0, 2, 9>, <17, 16, 7, 478, 20.0, 2, 9>, <17, 16, 7, 479, 17.0, 2, 9>, <17, 16, 7, 480, 10.0, 2, 9>, <17, 16, 7, 481, 7.0, 2, 9>, <18, 16, 7, 482, 18.0, 2, 9>, <18, 16, 7, 483, 15.0, 2, 9>, <18, 16, 7, 484, 11.0, 2, 9>, <18, 16, 7, 485, 8.0, 2, 9>, <8, 16, 8, 486, 13.0, 3, 12>, <8, 16, 8, 487, 25.0, 3, 12>, <8, 16, 8, 488, 16.0, 3, 12>, <8, 16, 8, 489, 22.0, 3, 12>, <8, 16, 8, 490, 34.0, 3, 12>, <8, 16, 8, 491, 25.0, 3, 12>, <8, 16, 8, 492, 10.0, 3, 12>, <8, 16, 8, 493, 22.0, 3, 12>, <8, 16, 8, 494, 13.0, 3, 12>, <10, 16, 8, 495, 23.0, 3, 12>, <10, 16, 8, 496, 35.0, 3, 12>, <10, 16, 8, 497, 26.0, 3, 12>, <10, 16, 8, 498, 9.0, 3, 12>, <10, 16, 8, 499, 21.0, 3, 12>, <10, 16, 8, 500, 12.0, 3, 12>, <10, 16, 8, 501, 15.0, 3, 12>, <10, 16, 8, 502, 27.0, 3, 12>, <10, 16, 8, 503, 18.0, 3, 12>, <17, 16, 8, 504, 17.0, 3, 12>, <17, 16, 8, 505, 29.0, 3, 12>, <17, 16, 8, 506, 20.0, 3, 12>, <17, 16, 8, 507, 7.0, 3, 12>, <17, 16, 8, 508, 19.0, 3, 12>, <17, 16, 8, 509, 10.0, 3, 12>, <18, 16, 8, 510, 15.0, 3, 12>, <18, 16, 8, 511, 27.0, 3, 12>, <18, 16, 8, 512, 18.0, 3, 12>, <18, 16, 8, 513, 8.0, 3, 12>, <18, 16, 8, 514, 20.0, 3, 12>, <18, 16, 8, 515, 11.0, 3, 12>, <8, 16, 15, 516, 18.0, 1, 9>, <8, 16, 15, 517, 24.0, 1, 9>, <8, 16, 15, 518, 15.0, 1, 9>, <8, 16, 15, 519, 27.0, 1, 9>, <8, 16, 15, 520, 33.0, 1, 9>, <8, 16, 15, 521, 24.0, 1, 9>, <8, 16, 15, 522, 15.0, 1, 9>, <8, 16, 15, 523, 21.0, 1, 9>, <8, 16, 15, 524, 12.0, 1, 9>, <10, 16, 15, 525, 28.0, 1, 9>, <10, 16, 15, 526, 34.0, 1, 9>, <10, 16, 15, 527, 25.0, 1, 9>, <10, 16, 15, 528, 14.0, 1, 9>, <10, 16, 15, 529, 20.0, 1, 9>, <10, 16, 15, 530, 11.0, 1, 9>, <10, 16, 15, 531, 20.0, 1, 9>, <10, 16, 15, 532, 26.0, 1, 9>, <10, 16, 15, 533, 17.0, 1, 9>, <17, 16, 15, 534, 22.0, 1, 9>, <17, 16, 15, 535, 28.0, 1, 9>, <17, 16, 15, 536, 19.0, 1, 9>, <17, 16, 15, 537, 12.0, 1, 9>, <17, 16, 15, 538, 18.0, 1, 9>, <17, 16, 15, 539, 9.0, 1, 9>, <18, 16, 15, 540, 20.0, 1, 9>, <18, 16, 15, 541, 26.0, 1, 9>, <18, 16, 15, 542, 17.0, 1, 9>, <18, 16, 15, 543, 13.0, 1, 9>, <18, 16, 15, 544, 19.0, 1, 9>, <18, 16, 15, 545, 10.0, 1, 9>, <8, 16, 20, 546, 16.0, 2, 12>, <8, 16, 20, 547, 15.0, 2, 12>, <8, 16, 20, 548, 25.0, 2, 12>, <8, 16, 20, 549, 24.0, 2, 12>, <8, 16, 20, 550, 13.0, 2, 12>, <8, 16, 20, 551, 12.0, 2, 12>, <10, 16, 20, 552, 26.0, 2, 12>, <10, 16, 20, 553, 25.0, 2, 12>, <10, 16, 20, 554, 12.0, 2, 12>, <10, 16, 20, 555, 11.0, 2, 12>, <10, 16, 20, 556, 18.0, 2, 12>, <10, 16, 20, 557, 17.0, 2, 12>, <17, 16, 20, 558, 20.0, 2, 12>, <17, 16, 20, 559, 19.0, 2, 12>, <17, 16, 20, 560, 10.0, 2, 12>, <17, 16, 20, 561, 9.0, 2, 12>, <18, 16, 20, 562, 18.0, 2, 12>, <18, 16, 20, 563, 17.0, 2, 12>, <18, 16, 20, 564, 11.0, 2, 12>, <18, 16, 20, 565, 10.0, 2, 12>, <10, 17, 9, 566, 22.0, 1, 5>, <10, 17, 9, 567, 28.0, 1, 5>, <10, 17, 9, 568, 20.0, 1, 5>, <10, 17, 9, 569, 17.0, 1, 5>, <10, 17, 9, 570, 23.0, 1, 5>, <10, 17, 9, 571, 15.0, 1, 5>, <10, 17, 9, 572, 19.0, 1, 5>, <10, 17, 9, 573, 25.0, 1, 5>, <10, 17, 9, 574, 17.0, 1, 5>, <16, 17, 9, 575, 23.0, 1, 5>, <16, 17, 9, 576, 29.0, 1, 5>, <16, 17, 9, 577, 21.0, 1, 5>, <16, 17, 9, 578, 13.0, 1, 5>, <16, 17, 9, 579, 19.0, 1, 5>, <16, 17, 9, 580, 11.0, 1, 5>, <19, 17, 9, 581, 28.0, 1, 5>, <19, 17, 9, 582, 34.0, 1, 5>, <19, 17, 9, 583, 26.0, 1, 5>, <19, 17, 9, 584, 13.0, 1, 5>, <19, 17, 9, 585, 19.0, 1, 5>, <19, 17, 9, 586, 11.0, 1, 5>, <10, 17, 16, 587, 23.0, 4, 7>, <10, 17, 16, 588, 13.0, 4, 7>, <10, 17, 16, 589, 18.0, 4, 7>, <10, 17, 16, 590, 8.0, 4, 7>, <10, 17, 16, 591, 20.0, 4, 7>, <10, 17, 16, 592, 10.0, 4, 7>, <16, 17, 16, 593, 24.0, 4, 7>, <16, 17, 16, 594, 14.0, 4, 7>, <16, 17, 16, 595, 14.0, 4, 7>, <16, 17, 16, 596, 4.0, 4, 7>, <19, 17, 16, 597, 29.0, 4, 7>, <19, 17, 16, 598, 19.0, 4, 7>, <19, 17, 16, 599, 14.0, 4, 7>, <19, 17, 16, 600, 4.0, 4, 7>, <7, 18, 10, 601, 18.0, 1, 8>, <7, 18, 10, 602, 24.0, 1, 8>, <7, 18, 10, 603, 9.0, 1, 8>, <7, 18, 10, 604, 15.0, 1, 8>, <16, 18, 10, 605, 17.0, 1, 8>, <16, 18, 10, 606, 23.0, 1, 8>, <16, 18, 10, 607, 10.0, 1, 8>, <16, 18, 10, 608, 16.0, 1, 8>, <20, 18, 10, 609, 11.0, 1, 8>, <20, 18, 10, 610, 17.0, 1, 8>, <15, 19, 8, 611, 25.0, 1, 15>, <15, 19, 8, 612, 12.0, 1, 15>, <15, 19, 8, 613, 21.0, 1, 15>, <17, 19, 8, 614, 26.0, 1, 15>, <17, 19, 8, 615, 11.0, 1, 15>, <20, 19, 8, 616, 13.0, 1, 15>, <20, 19, 8, 617, 20.0, 1, 15>, <15, 19, 10, 618, 25.0, 2, 11>, <15, 19, 10, 619, 26.0, 2, 11>, <15, 19, 10, 620, 24.0, 2, 11>, <15, 19, 10, 621, 12.0, 2, 11>, <15, 19, 10, 622, 13.0, 2, 11>, <15, 19, 10, 623, 11.0, 2, 11>, <15, 19, 10, 624, 21.0, 2, 11>, <15, 19, 10, 625, 22.0, 2, 11>, <15, 19, 10, 626, 20.0, 2, 11>, <17, 19, 10, 627, 26.0, 2, 11>, <17, 19, 10, 628, 27.0, 2, 11>, <17, 19, 10, 629, 25.0, 2, 11>, <17, 19, 10, 630, 11.0, 2, 11>, <17, 19, 10, 631, 12.0, 2, 11>, <17, 19, 10, 632, 10.0, 2, 11>, <20, 19, 10, 633, 13.0, 2, 11>, <20, 19, 10, 634, 14.0, 2, 11>, <20, 19, 10, 635, 12.0, 2, 11>, <20, 19, 10, 636, 20.0, 2, 11>, <20, 19, 10, 637, 21.0, 2, 11>, <20, 19, 10, 638, 19.0, 2, 11>, <15, 19, 20, 639, 27.0, 1, 6>, <15, 19, 20, 640, 20.0, 1, 6>, <15, 19, 20, 641, 14.0, 1, 6>, <15, 19, 20, 642, 7.0, 1, 6>, <15, 19, 20, 643, 23.0, 1, 6>, <15, 19, 20, 644, 16.0, 1, 6>, <17, 19, 20, 645, 28.0, 1, 6>, <17, 19, 20, 646, 21.0, 1, 6>, <17, 19, 20, 647, 13.0, 1, 6>, <17, 19, 20, 648, 6.0, 1, 6>, <20, 19, 20, 649, 15.0, 1, 6>, <20, 19, 20, 650, 8.0, 1, 6>, <20, 19, 20, 651, 22.0, 1, 6>, <20, 19, 20, 652, 15.0, 1, 6>, <18, 20, 16, 653, 11.0, 2, 10>, <18, 20, 16, 654, 12.0, 2, 10>, <19, 20, 16, 655, 18.0, 2, 10>, <19, 20, 16, 656, 19.0, 2, 10>, <19, 20, 16, 657, 11.0, 2, 10>, <19, 20, 16, 658, 12.0, 2, 10>, <21, 20, 16, 659, 13.0, 2, 10>, <21, 20, 16, 660, 14.0, 2, 10>, <21, 20, 16, 661, 14.0, 2, 10>, <21, 20, 16, 662, 15.0, 2, 10>, <22, 20, 16, 663, 17.0, 2, 10>, <22, 20, 16, 664, 18.0, 2, 10>, <22, 20, 16, 665, 12.0, 2, 10>, <22, 20, 16, 666, 13.0, 2, 10>, <22, 20, 16, 667, 15.0, 2, 10>, <22, 20, 16, 668, 16.0, 2, 10>, <20, 21, 22, 669, 17.0, 2, 6>, <20, 21, 22, 670, 8.0, 2, 6>, <20, 21, 22, 671, 15.0, 2, 6>, <20, 21, 22, 672, 18.0, 2, 6>, <20, 21, 22, 673, 9.0, 2, 6>, <20, 21, 22, 674, 16.0, 2, 6>, <22, 21, 22, 675, 22.0, 2, 6>, <22, 21, 22, 676, 13.0, 2, 6>, <22, 21, 22, 677, 20.0, 2, 6>, <22, 21, 22, 678, 13.0, 2, 6>, <22, 21, 22, 679, 4.0, 2, 6>, <22, 21, 22, 680, 11.0, 2, 6>, <22, 21, 22, 681, 20.0, 2, 6>, <22, 21, 22, 682, 11.0, 2, 6>, <22, 21, 22, 683, 18.0, 2, 6>, <24, 21, 22, 684, 14.0, 2, 6>, <24, 21, 22, 685, 5.0, 2, 6>, <24, 21, 22, 686, 12.0, 2, 6>, <24, 21, 22, 687, 19.0, 2, 6>, <24, 21, 22, 688, 10.0, 2, 6>, <24, 21, 22, 689, 17.0, 2, 6>, <20, 21, 23, 690, 21.0, 1, 9>, <20, 21, 23, 691, 12.0, 1, 9>, <20, 21, 23, 692, 11.0, 1, 9>, <20, 21, 23, 693, 22.0, 1, 9>, <20, 21, 23, 694, 13.0, 1, 9>, <20, 21, 23, 695, 12.0, 1, 9>, <22, 21, 23, 696, 26.0, 1, 9>, <22, 21, 23, 697, 17.0, 1, 9>, <22, 21, 23, 698, 16.0, 1, 9>, <22, 21, 23, 699, 17.0, 1, 9>, <22, 21, 23, 700, 8.0, 1, 9>, <22, 21, 23, 701, 7.0, 1, 9>, <22, 21, 23, 702, 24.0, 1, 9>, <22, 21, 23, 703, 15.0, 1, 9>, <22, 21, 23, 704, 14.0, 1, 9>, <24, 21, 23, 705, 18.0, 1, 9>, <24, 21, 23, 706, 9.0, 1, 9>, <24, 21, 23, 707, 8.0, 1, 9>, <24, 21, 23, 708, 23.0, 1, 9>, <24, 21, 23, 709, 14.0, 1, 9>, <24, 21, 23, 710, 13.0, 1, 9>, <15, 22, 15, 711, 16.0, 4, 7>, <15, 22, 15, 712, 25.0, 4, 7>, <15, 22, 15, 713, 26.0, 4, 7>, <15, 22, 15, 714, 15.0, 4, 7>, <15, 22, 15, 715, 24.0, 4, 7>, <15, 22, 15, 716, 25.0, 4, 7>, <15, 22, 15, 717, 6.0, 4, 7>, <15, 22, 15, 718, 15.0, 4, 7>, <15, 22, 15, 719, 16.0, 4, 7>, <20, 22, 15, 720, 13.0, 4, 7>, <20, 22, 15, 721, 22.0, 4, 7>, <20, 22, 15, 722, 23.0, 4, 7>, <20, 22, 15, 723, 11.0, 4, 7>, <20, 22, 15, 724, 20.0, 4, 7>, <20, 22, 15, 725, 21.0, 4, 7>, <20, 22, 15, 726, 8.0, 4, 7>, <20, 22, 15, 727, 17.0, 4, 7>, <20, 22, 15, 728, 18.0, 4, 7>, <21, 22, 15, 729, 14.0, 4, 7>, <21, 22, 15, 730, 23.0, 4, 7>, <21, 22, 15, 731, 24.0, 4, 7>, <21, 22, 15, 732, 5.0, 4, 7>, <21, 22, 15, 733, 14.0, 4, 7>, <21, 22, 15, 734, 15.0, 4, 7>, <21, 22, 15, 735, 12.0, 4, 7>, <21, 22, 15, 736, 21.0, 4, 7>, <21, 22, 15, 737, 22.0, 4, 7>, <23, 22, 15, 738, 15.0, 4, 7>, <23, 22, 15, 739, 24.0, 4, 7>, <23, 22, 15, 740, 25.0, 4, 7>, <23, 22, 15, 741, 7.0, 4, 7>, <23, 22, 15, 742, 16.0, 4, 7>, <23, 22, 15, 743, 17.0, 4, 7>, <23, 22, 15, 744, 10.0, 4, 7>, <23, 22, 15, 745, 19.0, 4, 7>, <23, 22, 15, 746, 20.0, 4, 7>, <15, 22, 19, 747, 19.0, 1, 15>, <15, 22, 19, 748, 22.0, 1, 15>, <15, 22, 19, 749, 25.0, 1, 15>, <15, 22, 19, 750, 18.0, 1, 15>, <15, 22, 19, 751, 21.0, 1, 15>, <15, 22, 19, 752, 24.0, 1, 15>, <15, 22, 19, 753, 9.0, 1, 15>, <15, 22, 19, 754, 12.0, 1, 15>, <15, 22, 19, 755, 15.0, 1, 15>, <20, 22, 19, 756, 16.0, 1, 15>, <20, 22, 19, 757, 19.0, 1, 15>, <20, 22, 19, 758, 22.0, 1, 15>, <20, 22, 19, 759, 14.0, 1, 15>, <20, 22, 19, 760, 17.0, 1, 15>, <20, 22, 19, 761, 20.0, 1, 15>, <20, 22, 19, 762, 11.0, 1, 15>, <20, 22, 19, 763, 14.0, 1, 15>, <20, 22, 19, 764, 17.0, 1, 15>, <21, 22, 19, 765, 17.0, 1, 15>, <21, 22, 19, 766, 20.0, 1, 15>, <21, 22, 19, 767, 23.0, 1, 15>, <21, 22, 19, 768, 8.0, 1, 15>, <21, 22, 19, 769, 11.0, 1, 15>, <21, 22, 19, 770, 14.0, 1, 15>, <21, 22, 19, 771, 15.0, 1, 15>, <21, 22, 19, 772, 18.0, 1, 15>, <21, 22, 19, 773, 21.0, 1, 15>, <23, 22, 19, 774, 18.0, 1, 15>, <23, 22, 19, 775, 21.0, 1, 15>, <23, 22, 19, 776, 24.0, 1, 15>, <23, 22, 19, 777, 10.0, 1, 15>, <23, 22, 19, 778, 13.0, 1, 15>, <23, 22, 19, 779, 16.0, 1, 15>, <23, 22, 19, 780, 13.0, 1, 15>, <23, 22, 19, 781, 16.0, 1, 15>, <23, 22, 19, 782, 19.0, 1, 15>, <15, 22, 20, 783, 23.0, 3, 7>, <15, 22, 20, 784, 18.0, 3, 7>, <15, 22, 20, 785, 21.0, 3, 7>, <15, 22, 20, 786, 22.0, 3, 7>, <15, 22, 20, 787, 17.0, 3, 7>, <15, 22, 20, 788, 20.0, 3, 7>, <15, 22, 20, 789, 13.0, 3, 7>, <15, 22, 20, 790, 8.0, 3, 7>, <15, 22, 20, 791, 11.0, 3, 7>, <20, 22, 20, 792, 20.0, 3, 7>, <20, 22, 20, 793, 15.0, 3, 7>, <20, 22, 20, 794, 18.0, 3, 7>, <20, 22, 20, 795, 18.0, 3, 7>, <20, 22, 20, 796, 13.0, 3, 7>, <20, 22, 20, 797, 16.0, 3, 7>, <20, 22, 20, 798, 15.0, 3, 7>, <20, 22, 20, 799, 10.0, 3, 7>, <20, 22, 20, 800, 13.0, 3, 7>, <21, 22, 20, 801, 21.0, 3, 7>, <21, 22, 20, 802, 16.0, 3, 7>, <21, 22, 20, 803, 19.0, 3, 7>, <21, 22, 20, 804, 12.0, 3, 7>, <21, 22, 20, 805, 7.0, 3, 7>, <21, 22, 20, 806, 10.0, 3, 7>, <21, 22, 20, 807, 19.0, 3, 7>, <21, 22, 20, 808, 14.0, 3, 7>, <21, 22, 20, 809, 17.0, 3, 7>, <23, 22, 20, 810, 22.0, 3, 7>, <23, 22, 20, 811, 17.0, 3, 7>, <23, 22, 20, 812, 20.0, 3, 7>, <23, 22, 20, 813, 14.0, 3, 7>, <23, 22, 20, 814, 9.0, 3, 7>, <23, 22, 20, 815, 12.0, 3, 7>, <23, 22, 20, 816, 17.0, 3, 7>, <23, 22, 20, 817, 12.0, 3, 7>, <23, 22, 20, 818, 15.0, 3, 7>, <14, 23, 20, 819, 21.0, 1, 7>, <14, 23, 20, 820, 24.0, 1, 7>, <14, 23, 20, 821, 23.0, 1, 7>, <14, 23, 20, 822, 13.0, 1, 7>, <14, 23, 20, 823, 16.0, 1, 7>, <14, 23, 20, 824, 15.0, 1, 7>, <22, 23, 20, 825, 21.0, 1, 7>, <22, 23, 20, 826, 24.0, 1, 7>, <22, 23, 20, 827, 23.0, 1, 7>, <22, 23, 20, 828, 16.0, 1, 7>, <22, 23, 20, 829, 19.0, 1, 7>, <22, 23, 20, 830, 18.0, 1, 7>, <22, 23, 20, 831, 13.0, 1, 7>, <22, 23, 20, 832, 16.0, 1, 7>, <22, 23, 20, 833, 15.0, 1, 7>, <24, 23, 20, 834, 18.0, 1, 7>, <24, 23, 20, 835, 21.0, 1, 7>, <24, 23, 20, 836, 20.0, 1, 7>, <24, 23, 20, 837, 11.0, 1, 7>, <24, 23, 20, 838, 14.0, 1, 7>, <24, 23, 20, 839, 13.0, 1, 7>, <13, 24, 23, 840, 13.0, 1, 15>, <13, 24, 23, 841, 6.0, 1, 15>, <21, 24, 23, 842, 17.0, 1, 15>, <21, 24, 23, 843, 10.0, 1, 15>, <21, 24, 23, 844, 12.0, 1, 15>, <21, 24, 23, 845, 5.0, 1, 15>, <23, 24, 23, 846, 18.0, 1, 15>, <23, 24, 23, 847, 11.0, 1, 15>, <23, 24, 23, 848, 11.0, 1, 15>, <23, 24, 23, 849, 4.0, 1, 15>};
